(set-logic ALL)
(set-option :smt.string_solver z3str3)
(set-option :produce-models true)
(define-fun-rec str.toLower ((x String)) String
  (ite (= x "")
      ""
      (let ((Head (str.at x 0)))
        (str.++ 
          (ite (and (<= 65 (str.to_code Head)) 
                     (<= (str.to_code Head) 90))
               (str.from_code (+ (str.to_code Head) 32))
               Head)
          (str.toLower (str.substr x 1 (- (str.len x) 1)))))))
(declare-fun sym209 () String)
(assert (<= (str.len sym209) 1))
(declare-fun sym3608 () String)
(assert (<= (str.len sym3608) 1))
(declare-fun sym3707 () String)
(assert (<= (str.len sym3707) 1))
(declare-fun sym817 () String)
(assert (<= (str.len sym817) 1))
(declare-fun sym1902 () String)
(assert (<= (str.len sym1902) 1))
(declare-fun sym2548 () String)
(assert (<= (str.len sym2548) 1))
(declare-fun sym551 () String)
(assert (<= (str.len sym551) 1))
(declare-fun sym1469 () String)
(assert (<= (str.len sym1469) 1))
(declare-fun sym1687 () String)
(assert (<= (str.len sym1687) 1))
(declare-fun sym2336 () String)
(assert (<= (str.len sym2336) 1))
(declare-fun sym2972 () String)
(assert (<= (str.len sym2972) 1))
(declare-fun sym1036 () String)
(assert (<= (str.len sym1036) 1))
(declare-fun sym2760 () String)
(assert (<= (str.len sym2760) 1))
(declare-fun sym1254 () String)
(assert (<= (str.len sym1254) 1))
(declare-fun sym2120 () String)
(assert (<= (str.len sym2120) 1))
(declare-fun sym3396 () String)
(assert (<= (str.len sym3396) 1))
(declare-fun sym161 () String)
(assert (<= (str.len sym161) 1))
(declare-fun sym3184 () String)
(assert (<= (str.len sym3184) 1))
(define-fun Alphabet () RegLan 
	(re.* (re.union (str.to_re "A") (str.to_re "B") (str.to_re "C") (str.to_re "D") (str.to_re "E") (str.to_re "F") (str.to_re "G") (str.to_re "H") (str.to_re "I") (str.to_re "J") (str.to_re "K") (str.to_re "L") (str.to_re "M") (str.to_re "N") (str.to_re "O") (str.to_re "P") (str.to_re "Q") (str.to_re "R") (str.to_re "S") (str.to_re "T") (str.to_re "U") (str.to_re "V") (str.to_re "W") (str.to_re "X") (str.to_re "Y") (str.to_re "Z") (str.to_re "a") (str.to_re "b") (str.to_re "c") (str.to_re "d") (str.to_re "e") (str.to_re "f") (str.to_re "g") (str.to_re "h") (str.to_re "i") (str.to_re "j") (str.to_re "k") (str.to_re "l") (str.to_re "m") (str.to_re "n") (str.to_re "o") (str.to_re "p") (str.to_re "q") (str.to_re "r") (str.to_re "s") (str.to_re "t") (str.to_re "u") (str.to_re "v") (str.to_re "w") (str.to_re "x") (str.to_re "y") (str.to_re "z") ))
)

(assert (str.in_re sym3184 Alphabet))
(assert (str.in_re sym161 Alphabet))
(assert (str.in_re sym3396 Alphabet))
(assert (str.in_re sym2120 Alphabet))
(assert (str.in_re sym1254 Alphabet))
(assert (str.in_re sym2760 Alphabet))
(assert (str.in_re sym1036 Alphabet))
(assert (str.in_re sym2972 Alphabet))
(assert (str.in_re sym2336 Alphabet))
(assert (str.in_re sym1687 Alphabet))
(assert (str.in_re sym1469 Alphabet))
(assert (str.in_re sym551 Alphabet))
(assert (str.in_re sym2548 Alphabet))
(assert (str.in_re sym1902 Alphabet))
(assert (str.in_re sym817 Alphabet))
(assert (str.in_re sym3707 Alphabet))
(assert (str.in_re sym3608 Alphabet))
(assert (str.in_re sym209 Alphabet))(assert (<= 1 (str.len sym3396 )))
(assert (<= 1 (str.len sym1254 )))
(assert (<= 1 (str.len sym1469 )))
(assert (<= 1 (str.len sym1036 )))
(assert (<= 1 (str.len sym209 )))
(assert (<= 1 (str.len sym1687 )))
(assert (<= 1 (str.len sym3608 )))
(assert (<= 1 (str.len sym3707 )))
(assert (<= 1 (str.len sym2120 )))
(assert (<= 1 (str.len sym1902 )))
(assert (<= 1 (str.len sym551 )))
(assert (<= 1 (str.len sym2760 )))
(assert (<= 1 (str.len sym817 )))
(assert (<= 1 (str.len sym2336 )))
(assert (<= 1 (str.len sym2972 )))
(assert (<= 1 (str.len sym2548 )))
(assert (<= 1 (str.len sym3184 )))

(assert (not (= "" sym2548 )))
(assert (not (= (str.toLower (str.substr sym2760  0 1))"q" )))
(assert (= (str.toLower (str.substr sym209  0 1))"y" ))
(assert (not (= (str.toLower (str.substr sym2972  0 1))"q" )))
(assert (not (= (str.toLower (str.substr sym1687  0 1))"q" )))
(assert (not (= (str.toLower (str.substr sym1469  0 1))"q" )))
(assert (not (= "" sym2120 )))
(assert (not (= (str.toLower (str.substr sym2336  0 1))"q" )))
(assert (= (str.toLower (str.substr sym2760  0 1))"p" ))
(assert (not (= (str.toLower (str.substr sym817  0 1))"g" )))
(assert (not (= (str.toLower (str.substr sym2120  0 1))"l" )))
(assert (not (= (str.toLower (str.substr sym817  0 1))"p" )))
(assert (not (= "" sym209 )))
(assert (not (= "" sym1254 )))
(assert (= (str.toLower (str.substr sym1687  0 1))"h" ))
(assert (= (str.toLower (str.substr sym3184  0 1))"p" ))
(assert (= "" "" ))
(assert (not (= "" sym3608 )))
(assert (not (= "n" "y" )))
(assert (not (= "" (str.toLower (str.substr sym209  0 1)))))
(assert (= (str.toLower (str.substr sym551  0 1))"p" ))
(assert (not (= (str.toLower (str.substr sym3707  0 1))"y" )))
(assert (not (= (str.toLower (str.substr sym1687  0 1))"g" )))
(assert (not (= (str.toLower (str.substr sym2548  0 1))"q" )))
(assert (not (= "" "y" )))
(assert (not (= "" sym3184 )))
(assert (not (= "" sym2336 )))
(assert (not (= (str.toLower (str.substr sym817  0 1))"r" )))
(assert (not (= (str.toLower (str.substr sym1687  0 1))"l" )))
(assert (= (str.toLower (str.substr sym817  0 1))"h" ))
(assert (not (= (str.toLower (str.substr sym2120  0 1))"k" )))
(assert (not (= (str.toLower (str.substr sym2120  0 1))"g" )))
(assert (not (= (str.toLower (str.substr sym2120  0 1))"q" )))
(assert (not (= "" "q" )))
(assert (not (= "" sym817 )))
(assert (not (= (str.toLower (str.substr sym1902  0 1))"q" )))
(assert (not (= (str.toLower (str.substr sym1687  0 1))"p" )))
(assert (not (= (str.toLower (str.substr sym1036  0 1))"q" )))
(assert (not (= (str.toLower (str.substr sym1254  0 1))"l" )))
(assert (= "y" "y" ))
(assert (= (str.toLower (str.substr sym2548  0 1))"p" ))
(assert (= (str.toLower (str.substr sym1902  0 1))"p" ))
(assert (not (= "" sym1687 )))
(assert (not (= (str.toLower (str.substr sym3396  0 1))"q" )))
(assert (not (= "" sym1469 )))
(assert (= (str.toLower (str.substr sym1254  0 1))"h" ))
(assert (not (= "" sym3396 )))
(assert (not (= (str.toLower (str.substr sym1687  0 1))"k" )))
(assert (not (= (str.toLower (str.substr sym1254  0 1))"g" )))
(assert (not (= "" sym3707 )))
(assert (= (str.toLower (str.substr sym1036  0 1))"p" ))
(assert (= (str.toLower (str.substr sym3608  0 1))"p" ))
(assert (not (= (str.toLower (str.substr sym551  0 1))"q" )))
(assert (not (= (str.toLower (str.substr sym2120  0 1))"p" )))
(assert (= (str.toLower (str.substr sym2972  0 1))"p" ))
(assert (= (str.toLower (str.substr sym1469  0 1))"p" ))
(assert (= (str.toLower (str.substr sym2120  0 1))"h" ))
(assert (not (= "" sym1036 )))
(assert (not (= (str.toLower (str.substr sym1254  0 1))"r" )))
(assert (= (str.toLower (str.substr sym2336  0 1))"p" ))
(assert (not (= (str.toLower (str.substr sym2120  0 1))"r" )))
(assert (not (= "" sym2972 )))
(assert (not (= "" sym551 )))
(assert (not (= (str.toLower (str.substr sym817  0 1))"l" )))
(assert (not (= "" "n" )))
(assert (not (= (str.toLower (str.substr sym1254  0 1))"q" )))
(assert (not (= (str.toLower (str.substr sym3608  0 1))"q" )))
(assert (not (= (str.toLower (str.substr sym1254  0 1))"p" )))
(assert (not (= "" (str.toLower (str.substr sym3707  0 1)))))
(assert (not (= "" sym2760 )))
(assert (not (= "y" "n" )))
(assert (= "" sym161 ))
(assert (not (= (str.toLower (str.substr sym817  0 1))"k" )))
(assert (= (str.toLower (str.substr sym3396  0 1))"p" ))
(assert (not (= "" sym1902 )))
(assert (not (= (str.toLower (str.substr sym1687  0 1))"r" )))
(assert (not (= "" "y" )))
(assert (not (= (str.toLower (str.substr sym1254  0 1))"k" )))
(assert (not (= (str.toLower (str.substr sym3184  0 1))"q" )))
(assert (not (= (str.toLower (str.substr sym817  0 1))"q" )))
(check-sat)
(get-model)
(exit)
